(set-logic LIA)

(declare-const y Int)
(declare-const y! Int)
(declare-const x Int)
(declare-const x! Int)
(declare-const n Int)
(declare-const n! Int)

(declare-const y_26 Int)
(declare-const y_19 Int)
(declare-const y_18 Int)
(declare-const x_25 Int)
(declare-const x_20 Int)
(declare-const x_17 Int)
(declare-const n_0 Int)

(define-fun inv-f((n Int)(x Int)(y Int)) Bool
